Version identifier: 12.10.0.0 | 2019-11-26 | 843d4de
CPXPARAM_LPMethod                                4
CPXPARAM_Threads                                 1
CPXPARAM_SolutionType                            2
CPXPARAM_TimeLimit                               10000
Tried aggregator 1 time.
LP Presolve eliminated 145087 rows and 271423 columns.
Aggregator did 103769 substitutions.
Reduced LP has 103157 rows, 296669 columns, and 1178920 nonzeros.
Presolve time = 4.74 sec. (713.72 ticks)
Parallel mode: none, using 1 thread for barrier
Number of nonzeros in lower triangle of A*A' = 927018
Using Approximate Minimum Degree ordering
Total time for automatic ordering = 0.65 sec. (221.09 ticks)
Summary statistics for Cholesky factor:
  Rows in Factor            = 103157
  Integer space required    = 669964
  Total non-zeros in factor = 2792623
  Total FP ops to factor    = 173187759
 Itn      Primal Obj        Dual Obj  Prim Inf Upper Inf  Dual Inf Inf Ratio
   0  -2.5755945e+02   0.0000000e+00  2.07e+07  0.00e+00  3.03e+05  1.00e+00
   1  -5.8883973e+02  -2.5626742e+02  1.78e+07  0.00e+00  2.74e+05  1.10e+00
   2  -8.9215141e+02  -5.1439939e+02  1.61e+07  0.00e+00  2.54e+05  1.21e+00
   3  -1.1277653e+03  -1.0283012e+03  1.46e+07  0.00e+00  2.11e+05  1.52e+00
   4  -1.2382889e+03  -1.4022572e+03  1.37e+07  0.00e+00  1.68e+05  1.99e+00
   5  -1.3829120e+03  -1.6386121e+03  1.21e+07  0.00e+00  1.32e+05  2.67e+00
   6  -1.4869721e+03  -1.8107593e+03  1.05e+07  0.00e+00  9.11e+04  4.10e+00
   7  -1.5696365e+03  -1.8346865e+03  8.32e+06  0.00e+00  6.64e+04  5.97e+00
   8  -1.6262684e+03  -1.7885844e+03  4.96e+06  0.00e+00  4.03e+04  1.11e+01
   9  -1.6154746e+03  -1.6683888e+03  2.00e+06  0.00e+00  1.31e+04  4.10e+01
  10  -1.6054778e+03  -1.6129472e+03  2.74e+05  0.00e+00  1.80e+03  3.94e+02
  11  -1.7867909e+03  -1.7615180e+03  1.84e+03  0.00e+00  2.73e+02  2.57e+03
  12  -1.9476913e+03  -2.0476547e+03  1.66e+03  0.00e+00  2.27e+02  3.15e+03
  13  -2.2854218e+03  -2.4116240e+03  1.38e+03  0.00e+00  1.83e+02  3.94e+03
  14  -2.5515973e+03  -2.7690656e+03  1.21e+03  0.00e+00  1.52e+02  4.83e+03
  15  -2.8151709e+03  -3.0744812e+03  1.08e+03  0.00e+00  1.30e+02  5.68e+03
  16  -3.1630490e+03  -3.3663057e+03  9.14e+02  0.00e+00  1.12e+02  6.62e+03
  17  -3.3155020e+03  -3.6713608e+03  8.50e+02  0.00e+00  9.43e+01  7.99e+03
  18  -3.6420841e+03  -3.9350695e+03  7.29e+02  0.00e+00  8.15e+01  9.21e+03
  19  -3.9701157e+03  -4.2400886e+03  6.23e+02  0.00e+00  6.88e+01  1.09e+04
  20  -4.2330322e+03  -4.4453693e+03  5.53e+02  0.00e+00  6.20e+01  1.20e+04
  21  -4.4516911e+03  -4.6589754e+03  5.01e+02  0.00e+00  5.57e+01  1.34e+04
  22  -4.6369953e+03  -4.9137064e+03  4.60e+02  0.00e+00  4.89e+01  1.53e+04
  23  -4.8850129e+03  -5.1073537e+03  4.11e+02  0.00e+00  4.43e+01  1.67e+04
  24  -5.0523450e+03  -5.3544226e+03  3.80e+02  0.00e+00  3.87e+01  1.92e+04
  25  -5.2354284e+03  -5.5164127e+03  3.47e+02  0.00e+00  3.52e+01  2.10e+04
  26  -5.3571177e+03  -5.6718008e+03  3.25e+02  0.00e+00  3.20e+01  2.32e+04
  27  -5.5856125e+03  -5.9040412e+03  2.85e+02  0.00e+00  2.72e+01  2.72e+04
  28  -5.8223442e+03  -6.0187358e+03  2.46e+02  0.00e+00  2.49e+01  2.93e+04
  29  -5.9826204e+03  -6.0991044e+03  2.19e+02  0.00e+00  2.33e+01  3.11e+04
  30  -6.1346293e+03  -6.2843124e+03  1.94e+02  0.00e+00  1.97e+01  3.69e+04
  31  -6.2680336e+03  -6.4989156e+03  1.72e+02  0.00e+00  1.58e+01  4.64e+04
  32  -6.4309854e+03  -6.7198529e+03  1.48e+02  0.00e+00  1.19e+01  6.08e+04
  33  -6.6237790e+03  -6.8046268e+03  1.20e+02  0.00e+00  1.06e+01  6.75e+04
  34  -6.7924810e+03  -6.8618566e+03  9.57e+01  0.00e+00  9.63e+00  7.31e+04
  35  -6.8870200e+03  -6.9494079e+03  8.20e+01  0.00e+00  8.21e+00  8.55e+04
  36  -6.9715677e+03  -7.1490981e+03  7.01e+01  0.00e+00  5.06e+00  1.38e+05
  37  -7.0702525e+03  -7.2506999e+03  5.74e+01  0.00e+00  3.66e+00  1.84e+05
  38  -7.1270753e+03  -7.3413603e+03  5.02e+01  0.00e+00  2.45e+00  2.57e+05
  39  -7.2076851e+03  -7.4087289e+03  4.04e+01  0.00e+00  1.61e+00  3.53e+05
  40  -7.2344759e+03  -7.4326194e+03  3.71e+01  0.00e+00  1.32e+00  4.08e+05
  41  -7.2860744e+03  -7.4633797e+03  3.09e+01  0.00e+00  9.54e-01  5.23e+05
  42  -7.3241187e+03  -7.4819346e+03  2.64e+01  0.00e+00  7.36e-01  6.33e+05
  43  -7.3771760e+03  -7.5038996e+03  2.00e+01  0.00e+00  4.79e-01  9.06e+05
  44  -7.4248605e+03  -7.5214735e+03  1.43e+01  0.00e+00  2.75e-01  1.23e+06
  45  -7.4801048e+03  -7.5299605e+03  7.76e+00  0.00e+00  1.77e-01  1.74e+06
  46  -7.5069022e+03  -7.5321234e+03  4.54e+00  0.00e+00  1.51e-01  1.97e+06
  47  -7.5259942e+03  -7.5362404e+03  2.22e+00  0.00e+00  9.93e-02  2.94e+06
  48  -7.5341735e+03  -7.5376974e+03  1.22e+00  0.00e+00  8.13e-02  3.64e+06
  49  -7.5392721e+03  -7.5396679e+03  6.06e-01  0.00e+00  5.69e-02  5.49e+06
  50  -7.5416477e+03  -7.5410912e+03  3.29e-01  0.00e+00  4.00e-02  8.38e+06
  51  -7.5421160e+03  -7.5426470e+03  2.76e-01  0.00e+00  2.22e-02  1.77e+07
  52  -7.5440922e+03  -7.5440063e+03  6.91e-02  0.00e+00  7.85e-03  5.99e+07
  53  -7.5446929e+03  -7.5447304e+03  1.26e-02  0.00e+00  9.20e-04  6.11e+08
  54  -7.5447763e+03  -7.5448065e+03  4.92e-03  0.00e+00  2.17e-04  2.58e+09
  55  -7.5448152e+03  -7.5448245e+03  1.39e-03  0.00e+00  5.42e-05  5.53e+09
  56  -7.5448282e+03  -7.5448292e+03  1.72e-04  0.00e+00  7.52e-06  3.87e+10
  57  -7.5448298e+03  -7.5448299e+03  1.98e-05  0.00e+00  6.01e-07  4.85e+11
Barrier time = 24.29 sec. (13997.64 ticks)

Total time on 1 threads = 24.29 sec. (13997.64 ticks)
Solver name: CPLEX
Solve time: 24.418748603
Termination status: OPTIMAL
Result count: 1
Primal status: FEASIBLE_POINT
Dual status: FEASIBLE_POINT
